30 1 6
747 870 604 277 472 572 699 141 516 299 469 142 671 437 591 443 357 362 314 824 513 6 974 945 314 957 524 363 692 940 
22 790 809 977 66 632 548 765 773 416 415 241 557 437 29 499 232 737 861 545 912 725 550 885 21 216 841 544 578 885 
836 951 674 996 928 92 628 475 208 400 242 974 992 798 411 372 297 994 460 509 538 371 233 439 608 605 6 448 149 583 
684 336 534 358 331 813 801 958 639 360 709 881 333 700 678 95 71 326 88 882 834 977 253 418 416 860 23 421 659 523 
356 343 210 241 52 540 53 852 498 691 211 206 571 895 258 601 990 680 278 77 562 112 54 166 881 821 25 255 593 35 
129 300 377 338 540 428 878 944 631 727 987 193 284 557 88 893 509 77 573 787 505 486 250 910 651 130 82 27 737 675 
610 8650 3260 4380 2030 2180 2170 4320 1610 8480 5100 1470 400 7930 560 1270 6860 5640 5550 6100 7020 4120 950 9510 3210 7450 4330 4030 7710 1690 
64290
